NAME: GRASP_13_3
TYPE: TSP
COMMENT: line_13_3
DIMENSION: 13
EDGE_WEIGHT_TYPE: EUC_2D
NODE_COORD_SECTION
1 0.0 62.0
2 0.0 107.0
3 0.0 106.0
4 0.0 26.0
5 0.0 123.0
6 0.0 111.0
7 0.0 125.0
8 0.0 43.0
9 0.0 114.0
10 0.0 44.0
11 0.0 27.0
12 0.0 127.0
13 0.0 9.0
